# Solution for model 2026-02-04_17-35-27
# Objective value = 7.1285141555125775e-02
# Best solution found in 2076.47 seconds. Total optimization time: 3424.74 seconds.
start_0 44
start_1 48
start_2 52
start_3 56
start_4 60
start_5 60
start_6 60
start_7 60
start_8 22
start_9 0
start_10 60
start_11 4
start_12 60
start_13 60
start_14 60
start_15 40
hold_0_1 0
hold_0_2 0
hold_0_3 0
hold_0_4 1
hold_0_5 0
hold_0_6 0
hold_0_7 0
hold_0_8 0
hold_0_9 0
hold_0_10 0
hold_0_11 0
hold_0_12 0
hold_0_13 0
hold_0_14 0
hold_0_15 0
hold_0_16 0
hold_0_17 0
hold_0_18 0
hold_0_19 0
hold_0_20 0
hold_0_21 0
hold_0_22 0
hold_0_23 0
hold_0_24 0
hold_0_25 0
hold_0_26 0
hold_0_27 0
hold_0_28 0
hold_0_29 0
hold_0_30 0
hold_0_31 0
hold_0_32 0
hold_0_33 0
hold_0_34 0
hold_0_35 0
hold_0_36 0
hold_0_37 0
hold_0_38 0
hold_0_39 0
hold_0_40 0
hold_0_41 0
hold_0_42 0
hold_0_43 0
hold_0_44 0
hold_1_1 0
hold_1_2 0
hold_1_3 0
hold_1_4 1
hold_1_5 0
hold_1_6 0
hold_1_7 0
hold_1_8 0
hold_1_9 0
hold_1_10 0
hold_1_11 0
hold_1_12 0
hold_1_13 0
hold_1_14 0
hold_1_15 0
hold_1_16 0
hold_1_17 0
hold_1_18 0
hold_1_19 0
hold_1_20 0
hold_1_21 0
hold_1_22 0
hold_1_23 0
hold_1_24 0
hold_1_25 0
hold_1_26 0
hold_1_27 0
hold_1_28 0
hold_1_29 0
hold_1_30 0
hold_1_31 0
hold_1_32 0
hold_1_33 0
hold_1_34 0
hold_1_35 0
hold_1_36 0
hold_1_37 0
hold_1_38 0
hold_1_39 0
hold_1_40 0
hold_1_41 0
hold_1_42 0
hold_1_43 0
hold_1_44 0
hold_2_1 0
hold_2_2 0
hold_2_3 0
hold_2_4 1
hold_2_5 0
hold_2_6 0
hold_2_7 0
hold_2_8 0
hold_2_9 0
hold_2_10 0
hold_2_11 0
hold_2_12 0
hold_2_13 0
hold_2_14 0
hold_2_15 0
hold_2_16 0
hold_2_17 0
hold_2_18 0
hold_2_19 0
hold_2_20 0
hold_2_21 0
hold_2_22 0
hold_2_23 0
hold_2_24 0
hold_2_25 0
hold_2_26 0
hold_2_27 0
hold_2_28 0
hold_2_29 0
hold_2_30 0
hold_2_31 0
hold_2_32 0
hold_2_33 0
hold_2_34 0
hold_2_35 0
hold_2_36 0
hold_2_37 0
hold_2_38 0
hold_2_39 0
hold_2_40 0
hold_2_41 0
hold_2_42 0
hold_2_43 0
hold_2_44 0
hold_3_1 0
hold_3_2 0
hold_3_3 0
hold_3_4 1
hold_3_5 0
hold_3_6 0
hold_3_7 0
hold_3_8 0
hold_3_9 0
hold_3_10 0
hold_3_11 0
hold_3_12 0
hold_3_13 0
hold_3_14 0
hold_3_15 0
hold_3_16 0
hold_3_17 0
hold_3_18 0
hold_3_19 0
hold_3_20 0
hold_3_21 0
hold_3_22 0
hold_3_23 0
hold_3_24 0
hold_3_25 0
hold_3_26 0
hold_3_27 0
hold_3_28 0
hold_3_29 0
hold_3_30 0
hold_3_31 0
hold_3_32 0
hold_3_33 0
hold_3_34 0
hold_3_35 0
hold_3_36 0
hold_3_37 0
hold_3_38 0
hold_3_39 0
hold_3_40 0
hold_3_41 0
hold_3_42 0
hold_3_43 0
hold_3_44 0
hold_4_1 0
hold_4_2 0
hold_4_3 0
hold_4_4 0
hold_4_5 0
hold_4_6 0
hold_4_7 0
hold_4_8 0
hold_4_9 0
hold_4_10 0
hold_4_11 0
hold_4_12 0
hold_4_13 0
hold_4_14 0
hold_4_15 0
hold_4_16 0
hold_4_17 0
hold_4_18 0
hold_4_19 0
hold_4_20 0
hold_4_21 0
hold_4_22 0
hold_4_23 0
hold_4_24 0
hold_4_25 0
hold_4_26 0
hold_4_27 0
hold_4_28 0
hold_4_29 0
hold_4_30 0
hold_4_31 0
hold_4_32 0
hold_4_33 0
hold_4_34 0
hold_4_35 0
hold_4_36 0
hold_4_37 0
hold_4_38 0
hold_4_39 0
hold_4_40 0
hold_4_41 0
hold_4_42 0
hold_4_43 0
hold_4_44 0
hold_5_1 0
hold_5_2 0
hold_5_3 0
hold_5_4 0
hold_5_5 0
hold_5_6 0
hold_5_7 0
hold_5_8 0
hold_5_9 0
hold_5_10 0
hold_5_11 0
hold_5_12 0
hold_5_13 0
hold_5_14 0
hold_5_15 0
hold_5_16 0
hold_5_17 0
hold_5_18 0
hold_5_19 0
hold_5_20 0
hold_5_21 0
hold_5_22 0
hold_5_23 0
hold_5_24 0
hold_5_25 0
hold_5_26 0
hold_5_27 0
hold_5_28 0
hold_5_29 0
hold_5_30 0
hold_5_31 0
hold_5_32 0
hold_5_33 0
hold_5_34 0
hold_5_35 0
hold_5_36 0
hold_5_37 0
hold_5_38 0
hold_5_39 0
hold_5_40 0
hold_5_41 0
hold_5_42 0
hold_5_43 0
hold_5_44 0
hold_6_1 0
hold_6_2 0
hold_6_3 0
hold_6_4 0
hold_6_5 0
hold_6_6 0
hold_6_7 0
hold_6_8 0
hold_6_9 0
hold_6_10 0
hold_6_11 0
hold_6_12 0
hold_6_13 0
hold_6_14 0
hold_6_15 0
hold_6_16 0
hold_6_17 0
hold_6_18 0
hold_6_19 0
hold_6_20 0
hold_6_21 0
hold_6_22 0
hold_6_23 0
hold_6_24 0
hold_6_25 0
hold_6_26 0
hold_6_27 0
hold_6_28 0
hold_6_29 0
hold_6_30 0
hold_6_31 0
hold_6_32 0
hold_6_33 0
hold_6_34 0
hold_6_35 0
hold_6_36 0
hold_6_37 0
hold_6_38 0
hold_6_39 0
hold_6_40 0
hold_6_41 0
hold_6_42 0
hold_6_43 0
hold_6_44 0
hold_7_1 0
hold_7_2 0
hold_7_3 0
hold_7_4 0
hold_7_5 0
hold_7_6 0
hold_7_7 0
hold_7_8 0
hold_7_9 0
hold_7_10 0
hold_7_11 0
hold_7_12 0
hold_7_13 0
hold_7_14 0
hold_7_15 0
hold_7_16 0
hold_7_17 0
hold_7_18 0
hold_7_19 0
hold_7_20 0
hold_7_21 0
hold_7_22 0
hold_7_23 0
hold_7_24 0
hold_7_25 0
hold_7_26 0
hold_7_27 0
hold_7_28 0
hold_7_29 0
hold_7_30 0
hold_7_31 0
hold_7_32 0
hold_7_33 0
hold_7_34 0
hold_7_35 0
hold_7_36 0
hold_7_37 0
hold_7_38 0
hold_7_39 0
hold_7_40 0
hold_7_41 0
hold_7_42 0
hold_7_43 0
hold_7_44 0
hold_8_1 0
hold_8_2 0
hold_8_3 0
hold_8_4 0
hold_8_5 0
hold_8_6 0
hold_8_7 0
hold_8_8 0
hold_8_9 0
hold_8_10 0
hold_8_11 0
hold_8_12 0
hold_8_13 0
hold_8_14 0
hold_8_15 0
hold_8_16 0
hold_8_17 0
hold_8_18 1
hold_8_19 0
hold_8_20 0
hold_8_21 0
hold_8_22 0
hold_8_23 0
hold_8_24 0
hold_8_25 0
hold_8_26 0
hold_8_27 0
hold_8_28 0
hold_8_29 0
hold_8_30 0
hold_8_31 0
hold_8_32 0
hold_8_33 0
hold_8_34 0
hold_8_35 0
hold_8_36 0
hold_8_37 0
hold_8_38 0
hold_8_39 0
hold_8_40 0
hold_8_41 0
hold_8_42 0
hold_8_43 0
hold_8_44 0
hold_9_1 0
hold_9_2 0
hold_9_3 0
hold_9_4 1
hold_9_5 0
hold_9_6 0
hold_9_7 0
hold_9_8 0
hold_9_9 0
hold_9_10 0
hold_9_11 0
hold_9_12 0
hold_9_13 0
hold_9_14 0
hold_9_15 0
hold_9_16 0
hold_9_17 0
hold_9_18 0
hold_9_19 0
hold_9_20 0
hold_9_21 0
hold_9_22 0
hold_9_23 0
hold_9_24 0
hold_9_25 0
hold_9_26 0
hold_9_27 0
hold_9_28 0
hold_9_29 0
hold_9_30 0
hold_9_31 0
hold_9_32 0
hold_9_33 0
hold_9_34 0
hold_9_35 0
hold_9_36 0
hold_9_37 0
hold_9_38 0
hold_9_39 0
hold_9_40 0
hold_9_41 0
hold_9_42 0
hold_9_43 0
hold_9_44 0
hold_10_1 0
hold_10_2 0
hold_10_3 0
hold_10_4 0
hold_10_5 0
hold_10_6 0
hold_10_7 0
hold_10_8 0
hold_10_9 0
hold_10_10 0
hold_10_11 0
hold_10_12 0
hold_10_13 0
hold_10_14 0
hold_10_15 0
hold_10_16 0
hold_10_17 0
hold_10_18 0
hold_10_19 0
hold_10_20 0
hold_10_21 0
hold_10_22 0
hold_10_23 0
hold_10_24 0
hold_10_25 0
hold_10_26 0
hold_10_27 0
hold_10_28 0
hold_10_29 0
hold_10_30 0
hold_10_31 0
hold_10_32 0
hold_10_33 0
hold_10_34 0
hold_10_35 0
hold_10_36 0
hold_10_37 0
hold_10_38 0
hold_10_39 0
hold_10_40 0
hold_10_41 0
hold_10_42 0
hold_10_43 0
hold_10_44 0
hold_11_1 0
hold_11_2 0
hold_11_3 0
hold_11_4 0
hold_11_5 0
hold_11_6 0
hold_11_7 0
hold_11_8 0
hold_11_9 0
hold_11_10 0
hold_11_11 0
hold_11_12 0
hold_11_13 0
hold_11_14 0
hold_11_15 0
hold_11_16 0
hold_11_17 0
hold_11_18 1
hold_11_19 0
hold_11_20 0
hold_11_21 0
hold_11_22 0
hold_11_23 0
hold_11_24 0
hold_11_25 0
hold_11_26 0
hold_11_27 0
hold_11_28 0
hold_11_29 0
hold_11_30 0
hold_11_31 0
hold_11_32 0
hold_11_33 0
hold_11_34 0
hold_11_35 0
hold_11_36 0
hold_11_37 0
hold_11_38 0
hold_11_39 0
hold_11_40 0
hold_11_41 0
hold_11_42 0
hold_11_43 0
hold_11_44 0
hold_12_1 0
hold_12_2 0
hold_12_3 0
hold_12_4 0
hold_12_5 0
hold_12_6 0
hold_12_7 0
hold_12_8 0
hold_12_9 0
hold_12_10 0
hold_12_11 0
hold_12_12 0
hold_12_13 0
hold_12_14 0
hold_12_15 0
hold_12_16 0
hold_12_17 0
hold_12_18 0
hold_12_19 0
hold_12_20 0
hold_12_21 0
hold_12_22 0
hold_12_23 0
hold_12_24 0
hold_12_25 0
hold_12_26 0
hold_12_27 0
hold_12_28 0
hold_12_29 0
hold_12_30 0
hold_12_31 0
hold_12_32 0
hold_12_33 0
hold_12_34 0
hold_12_35 0
hold_12_36 0
hold_12_37 0
hold_12_38 0
hold_12_39 0
hold_12_40 0
hold_12_41 0
hold_12_42 0
hold_12_43 0
hold_12_44 0
hold_13_1 0
hold_13_2 0
hold_13_3 0
hold_13_4 0
hold_13_5 0
hold_13_6 0
hold_13_7 0
hold_13_8 0
hold_13_9 0
hold_13_10 0
hold_13_11 0
hold_13_12 0
hold_13_13 0
hold_13_14 0
hold_13_15 0
hold_13_16 0
hold_13_17 0
hold_13_18 0
hold_13_19 0
hold_13_20 0
hold_13_21 0
hold_13_22 0
hold_13_23 0
hold_13_24 0
hold_13_25 0
hold_13_26 0
hold_13_27 0
hold_13_28 0
hold_13_29 0
hold_13_30 0
hold_13_31 0
hold_13_32 0
hold_13_33 0
hold_13_34 0
hold_13_35 0
hold_13_36 0
hold_13_37 0
hold_13_38 0
hold_13_39 0
hold_13_40 0
hold_13_41 0
hold_13_42 0
hold_13_43 0
hold_13_44 0
hold_14_1 0
hold_14_2 0
hold_14_3 0
hold_14_4 0
hold_14_5 0
hold_14_6 0
hold_14_7 0
hold_14_8 0
hold_14_9 0
hold_14_10 0
hold_14_11 0
hold_14_12 0
hold_14_13 0
hold_14_14 0
hold_14_15 0
hold_14_16 0
hold_14_17 0
hold_14_18 0
hold_14_19 0
hold_14_20 0
hold_14_21 0
hold_14_22 0
hold_14_23 0
hold_14_24 0
hold_14_25 0
hold_14_26 0
hold_14_27 0
hold_14_28 0
hold_14_29 0
hold_14_30 0
hold_14_31 0
hold_14_32 0
hold_14_33 0
hold_14_34 0
hold_14_35 0
hold_14_36 0
hold_14_37 0
hold_14_38 0
hold_14_39 0
hold_14_40 0
hold_14_41 0
hold_14_42 0
hold_14_43 0
hold_14_44 0
hold_15_1 0
hold_15_2 0
hold_15_3 0
hold_15_4 1
hold_15_5 0
hold_15_6 0
hold_15_7 0
hold_15_8 0
hold_15_9 0
hold_15_10 0
hold_15_11 0
hold_15_12 0
hold_15_13 0
hold_15_14 0
hold_15_15 0
hold_15_16 0
hold_15_17 0
hold_15_18 0
hold_15_19 0
hold_15_20 0
hold_15_21 0
hold_15_22 0
hold_15_23 0
hold_15_24 0
hold_15_25 0
hold_15_26 0
hold_15_27 0
hold_15_28 0
hold_15_29 0
hold_15_30 0
hold_15_31 0
hold_15_32 0
hold_15_33 0
hold_15_34 0
hold_15_35 0
hold_15_36 0
hold_15_37 0
hold_15_38 0
hold_15_39 0
hold_15_40 0
hold_15_41 0
hold_15_42 0
hold_15_43 0
hold_15_44 0
flow_source_nic_in_0 0
flow_nic_out_0_sink 640
flow_nic_out_0_nic_in_4 0
flow_nic_out_0_nic_in_8 0
flow_nic_out_0_nic_in_9 0
flow_nic_out_0_nic_in_10 0
flow_nic_out_0_nic_in_11 0
flow_nic_out_0_nic_in_12 0
flow_nic_out_0_nic_in_13 0
flow_nic_out_0_nic_in_14 0
flow_nic_out_0_nic_in_15 0
flow_nic_in_0_0 640
flow_0_nic_out_0 0
flow_nic_in_0_1 0
flow_1_nic_out_0 0
flow_nic_in_0_2 0
flow_2_nic_out_0 0
flow_nic_in_0_3 0
flow_3_nic_out_0 640
flow_0_1 640
flow_0_2 0
flow_0_3 0
flow_1_0 0
flow_1_2 640
flow_1_3 0
flow_2_0 0
flow_2_1 0
flow_2_3 640
flow_3_0 0
flow_3_1 0
flow_3_2 0
flow_source_nic_in_4 0
flow_nic_out_4_sink 0
flow_nic_out_4_nic_in_0 0
flow_nic_out_4_nic_in_8 0
flow_nic_out_4_nic_in_9 0
flow_nic_out_4_nic_in_10 0
flow_nic_out_4_nic_in_11 0
flow_nic_out_4_nic_in_12 0
flow_nic_out_4_nic_in_13 0
flow_nic_out_4_nic_in_14 0
flow_nic_out_4_nic_in_15 0
flow_nic_in_4_4 0
flow_4_nic_out_4 0
flow_nic_in_4_5 0
flow_5_nic_out_4 0
flow_nic_in_4_6 0
flow_6_nic_out_4 0
flow_nic_in_4_7 0
flow_7_nic_out_4 0
flow_4_5 0
flow_4_6 0
flow_4_7 0
flow_5_4 0
flow_5_6 0
flow_5_7 0
flow_6_4 0
flow_6_5 0
flow_6_7 0
flow_7_4 0
flow_7_5 0
flow_7_6 0
flow_source_nic_in_8 0
flow_nic_out_8_sink 0
flow_nic_out_8_nic_in_0 0
flow_nic_out_8_nic_in_4 0
flow_nic_out_8_nic_in_9 0
flow_nic_out_8_nic_in_10 0
flow_nic_out_8_nic_in_11 0
flow_nic_out_8_nic_in_12 0
flow_nic_out_8_nic_in_13 0
flow_nic_out_8_nic_in_14 0
flow_nic_out_8_nic_in_15 640
flow_nic_in_8_8 640
flow_8_nic_out_8 640
flow_source_nic_in_9 6.4000000098890314e+02
flow_nic_out_9_sink 0
flow_nic_out_9_nic_in_0 0
flow_nic_out_9_nic_in_4 0
flow_nic_out_9_nic_in_8 0
flow_nic_out_9_nic_in_10 0
flow_nic_out_9_nic_in_11 6.4000000098890314e+02
flow_nic_out_9_nic_in_12 0
flow_nic_out_9_nic_in_13 0
flow_nic_out_9_nic_in_14 0
flow_nic_out_9_nic_in_15 0
flow_nic_in_9_9 6.4000000098890314e+02
flow_9_nic_out_9 6.4000000098890314e+02
flow_source_nic_in_10 0
flow_nic_out_10_sink 0
flow_nic_out_10_nic_in_0 0
flow_nic_out_10_nic_in_4 0
flow_nic_out_10_nic_in_8 0
flow_nic_out_10_nic_in_9 0
flow_nic_out_10_nic_in_11 0
flow_nic_out_10_nic_in_12 0
flow_nic_out_10_nic_in_13 0
flow_nic_out_10_nic_in_14 0
flow_nic_out_10_nic_in_15 0
flow_nic_in_10_10 0
flow_10_nic_out_10 0
flow_source_nic_in_11 0
flow_nic_out_11_sink 0
flow_nic_out_11_nic_in_0 0
flow_nic_out_11_nic_in_4 0
flow_nic_out_11_nic_in_8 640
flow_nic_out_11_nic_in_9 0
flow_nic_out_11_nic_in_10 0
flow_nic_out_11_nic_in_12 0
flow_nic_out_11_nic_in_13 0
flow_nic_out_11_nic_in_14 0
flow_nic_out_11_nic_in_15 0
flow_nic_in_11_11 6.4000000098889814e+02
flow_11_nic_out_11 6.4000000098889814e+02
flow_source_nic_in_12 0
flow_nic_out_12_sink 0
flow_nic_out_12_nic_in_0 0
flow_nic_out_12_nic_in_4 0
flow_nic_out_12_nic_in_8 0
flow_nic_out_12_nic_in_9 0
flow_nic_out_12_nic_in_10 0
flow_nic_out_12_nic_in_11 0
flow_nic_out_12_nic_in_13 0
flow_nic_out_12_nic_in_14 0
flow_nic_out_12_nic_in_15 0
flow_nic_in_12_12 0
flow_12_nic_out_12 0
flow_source_nic_in_13 0
flow_nic_out_13_sink 0
flow_nic_out_13_nic_in_0 0
flow_nic_out_13_nic_in_4 0
flow_nic_out_13_nic_in_8 0
flow_nic_out_13_nic_in_9 0
flow_nic_out_13_nic_in_10 0
flow_nic_out_13_nic_in_11 0
flow_nic_out_13_nic_in_12 0
flow_nic_out_13_nic_in_14 0
flow_nic_out_13_nic_in_15 0
flow_nic_in_13_13 0
flow_13_nic_out_13 0
flow_source_nic_in_14 9.8890745903190712e-07
flow_nic_out_14_sink 9.8890745903190712e-07
flow_nic_out_14_nic_in_0 0
flow_nic_out_14_nic_in_4 0
flow_nic_out_14_nic_in_8 0
flow_nic_out_14_nic_in_9 0
flow_nic_out_14_nic_in_10 0
flow_nic_out_14_nic_in_11 0
flow_nic_out_14_nic_in_12 0
flow_nic_out_14_nic_in_13 0
flow_nic_out_14_nic_in_15 0
flow_nic_in_14_14 9.8890745903190712e-07
flow_14_nic_out_14 9.8890745903190712e-07
flow_source_nic_in_15 0
flow_nic_out_15_sink 0
flow_nic_out_15_nic_in_0 640
flow_nic_out_15_nic_in_4 0
flow_nic_out_15_nic_in_8 0
flow_nic_out_15_nic_in_9 0
flow_nic_out_15_nic_in_10 0
flow_nic_out_15_nic_in_11 0
flow_nic_out_15_nic_in_12 0
flow_nic_out_15_nic_in_13 0
flow_nic_out_15_nic_in_14 0
flow_nic_in_15_15 640
flow_15_nic_out_15 640
switch_source_nic_in_0 0
switch_nic_out_0_sink 1
switch_nic_out_0_nic_in_4 0
switch_nic_out_0_nic_in_8 0
switch_nic_out_0_nic_in_9 0
switch_nic_out_0_nic_in_10 0
switch_nic_out_0_nic_in_11 0
switch_nic_out_0_nic_in_12 0
switch_nic_out_0_nic_in_13 0
switch_nic_out_0_nic_in_14 0
switch_nic_out_0_nic_in_15 0
switch_nic_in_0_0 1
switch_0_nic_out_0 0
switch_nic_in_0_1 0
switch_1_nic_out_0 0
switch_nic_in_0_2 0
switch_2_nic_out_0 0
switch_nic_in_0_3 0
switch_3_nic_out_0 1
switch_0_1 1
switch_0_2 0
switch_0_3 0
switch_1_0 0
switch_1_2 1
switch_1_3 0
switch_2_0 0
switch_2_1 0
switch_2_3 1
switch_3_0 0
switch_3_1 0
switch_3_2 0
switch_source_nic_in_4 0
switch_nic_out_4_sink 0
switch_nic_out_4_nic_in_0 0
switch_nic_out_4_nic_in_8 0
switch_nic_out_4_nic_in_9 0
switch_nic_out_4_nic_in_10 1
switch_nic_out_4_nic_in_11 0
switch_nic_out_4_nic_in_12 0
switch_nic_out_4_nic_in_13 0
switch_nic_out_4_nic_in_14 0
switch_nic_out_4_nic_in_15 0
switch_nic_in_4_4 0
switch_4_nic_out_4 0
switch_nic_in_4_5 0
switch_5_nic_out_4 0
switch_nic_in_4_6 0
switch_6_nic_out_4 0
switch_nic_in_4_7 0
switch_7_nic_out_4 0
switch_4_5 0
switch_4_6 0
switch_4_7 0
switch_5_4 0
switch_5_6 0
switch_5_7 0
switch_6_4 0
switch_6_5 0
switch_6_7 0
switch_7_4 0
switch_7_5 0
switch_7_6 0
switch_source_nic_in_8 0
switch_nic_out_8_sink 0
switch_nic_out_8_nic_in_0 0
switch_nic_out_8_nic_in_4 0
switch_nic_out_8_nic_in_9 0
switch_nic_out_8_nic_in_10 0
switch_nic_out_8_nic_in_11 0
switch_nic_out_8_nic_in_12 0
switch_nic_out_8_nic_in_13 0
switch_nic_out_8_nic_in_14 0
switch_nic_out_8_nic_in_15 1
switch_nic_in_8_8 1
switch_8_nic_out_8 1
switch_source_nic_in_9 1
switch_nic_out_9_sink 0
switch_nic_out_9_nic_in_0 0
switch_nic_out_9_nic_in_4 0
switch_nic_out_9_nic_in_8 0
switch_nic_out_9_nic_in_10 0
switch_nic_out_9_nic_in_11 1
switch_nic_out_9_nic_in_12 0
switch_nic_out_9_nic_in_13 0
switch_nic_out_9_nic_in_14 0
switch_nic_out_9_nic_in_15 0
switch_nic_in_9_9 1
switch_9_nic_out_9 1
switch_source_nic_in_10 0
switch_nic_out_10_sink 0
switch_nic_out_10_nic_in_0 0
switch_nic_out_10_nic_in_4 0
switch_nic_out_10_nic_in_8 0
switch_nic_out_10_nic_in_9 0
switch_nic_out_10_nic_in_11 0
switch_nic_out_10_nic_in_12 0
switch_nic_out_10_nic_in_13 0
switch_nic_out_10_nic_in_14 0
switch_nic_out_10_nic_in_15 0
switch_nic_in_10_10 0
switch_10_nic_out_10 0
switch_source_nic_in_11 0
switch_nic_out_11_sink 0
switch_nic_out_11_nic_in_0 0
switch_nic_out_11_nic_in_4 0
switch_nic_out_11_nic_in_8 1
switch_nic_out_11_nic_in_9 0
switch_nic_out_11_nic_in_10 0
switch_nic_out_11_nic_in_12 0
switch_nic_out_11_nic_in_13 0
switch_nic_out_11_nic_in_14 0
switch_nic_out_11_nic_in_15 0
switch_nic_in_11_11 1
switch_11_nic_out_11 1
switch_source_nic_in_12 0
switch_nic_out_12_sink 0
switch_nic_out_12_nic_in_0 0
switch_nic_out_12_nic_in_4 0
switch_nic_out_12_nic_in_8 0
switch_nic_out_12_nic_in_9 0
switch_nic_out_12_nic_in_10 0
switch_nic_out_12_nic_in_11 0
switch_nic_out_12_nic_in_13 0
switch_nic_out_12_nic_in_14 0
switch_nic_out_12_nic_in_15 0
switch_nic_in_12_12 0
switch_12_nic_out_12 0
switch_source_nic_in_13 0
switch_nic_out_13_sink 0
switch_nic_out_13_nic_in_0 0
switch_nic_out_13_nic_in_4 0
switch_nic_out_13_nic_in_8 0
switch_nic_out_13_nic_in_9 0
switch_nic_out_13_nic_in_10 0
switch_nic_out_13_nic_in_11 0
switch_nic_out_13_nic_in_12 0
switch_nic_out_13_nic_in_14 0
switch_nic_out_13_nic_in_15 0
switch_nic_in_13_13 0
switch_13_nic_out_13 0
switch_source_nic_in_14 0
switch_nic_out_14_sink 0
switch_nic_out_14_nic_in_0 0
switch_nic_out_14_nic_in_4 0
switch_nic_out_14_nic_in_8 0
switch_nic_out_14_nic_in_9 0
switch_nic_out_14_nic_in_10 0
switch_nic_out_14_nic_in_11 0
switch_nic_out_14_nic_in_12 0
switch_nic_out_14_nic_in_13 0
switch_nic_out_14_nic_in_15 0
switch_nic_in_14_14 0
switch_14_nic_out_14 0
switch_source_nic_in_15 0
switch_nic_out_15_sink 0
switch_nic_out_15_nic_in_0 1
switch_nic_out_15_nic_in_4 0
switch_nic_out_15_nic_in_8 0
switch_nic_out_15_nic_in_9 0
switch_nic_out_15_nic_in_10 0
switch_nic_out_15_nic_in_11 0
switch_nic_out_15_nic_in_12 0
switch_nic_out_15_nic_in_13 0
switch_nic_out_15_nic_in_14 0
switch_nic_in_15_15 1
switch_15_nic_out_15 1
group_tp_active_0 0
group_tp_active_4 1
group_tp_active_8 0
group_tp_active_9 0
group_tp_active_10 0
group_tp_active_11 0
group_tp_active_12 0
group_tp_active_13 0
group_tp_active_14 0
group_tp_active_15 0
is_active_0 1
is_active_1 1
is_active_2 1
is_active_3 1
is_active_4 0
is_active_5 0
is_active_6 0
is_active_7 0
is_active_8 1
is_active_9 1
is_active_10 0
is_active_11 1
is_active_12 0
is_active_13 0
is_active_14 0
is_active_15 1
is_start_zero_0_for_source_nic_in_0 0
is_start_zero_1_for_source_nic_in_0 0
is_start_zero_2_for_source_nic_in_0 0
is_start_zero_3_for_source_nic_in_0 0
is_end_complete_0 0
is_end_complete_1 0
is_end_complete_2 0
is_end_complete_3 1
pair_ok_0_4_for_nic_out_0_nic_in_4 0
pair_ok_0_5_for_nic_out_0_nic_in_4 0
pair_ok_0_6_for_nic_out_0_nic_in_4 0
pair_ok_0_7_for_nic_out_0_nic_in_4 0
pair_ok_1_4_for_nic_out_0_nic_in_4 0
pair_ok_1_5_for_nic_out_0_nic_in_4 0
pair_ok_1_6_for_nic_out_0_nic_in_4 0
pair_ok_1_7_for_nic_out_0_nic_in_4 0
pair_ok_2_4_for_nic_out_0_nic_in_4 0
pair_ok_2_5_for_nic_out_0_nic_in_4 0
pair_ok_2_6_for_nic_out_0_nic_in_4 0
pair_ok_2_7_for_nic_out_0_nic_in_4 0
pair_ok_3_4_for_nic_out_0_nic_in_4 0
pair_ok_3_5_for_nic_out_0_nic_in_4 0
pair_ok_3_6_for_nic_out_0_nic_in_4 0
pair_ok_3_7_for_nic_out_0_nic_in_4 0
pair_ok_0_8_for_nic_out_0_nic_in_8 0
pair_ok_1_8_for_nic_out_0_nic_in_8 0
pair_ok_2_8_for_nic_out_0_nic_in_8 0
pair_ok_3_8_for_nic_out_0_nic_in_8 0
pair_ok_0_9_for_nic_out_0_nic_in_9 0
pair_ok_1_9_for_nic_out_0_nic_in_9 0
pair_ok_2_9_for_nic_out_0_nic_in_9 0
pair_ok_3_9_for_nic_out_0_nic_in_9 0
pair_ok_0_10_for_nic_out_0_nic_in_10 0
pair_ok_1_10_for_nic_out_0_nic_in_10 0
pair_ok_2_10_for_nic_out_0_nic_in_10 0
pair_ok_3_10_for_nic_out_0_nic_in_10 0
pair_ok_0_11_for_nic_out_0_nic_in_11 0
pair_ok_1_11_for_nic_out_0_nic_in_11 0
pair_ok_2_11_for_nic_out_0_nic_in_11 0
pair_ok_3_11_for_nic_out_0_nic_in_11 0
pair_ok_0_12_for_nic_out_0_nic_in_12 0
pair_ok_1_12_for_nic_out_0_nic_in_12 0
pair_ok_2_12_for_nic_out_0_nic_in_12 0
pair_ok_3_12_for_nic_out_0_nic_in_12 0
pair_ok_0_13_for_nic_out_0_nic_in_13 0
pair_ok_1_13_for_nic_out_0_nic_in_13 0
pair_ok_2_13_for_nic_out_0_nic_in_13 0
pair_ok_3_13_for_nic_out_0_nic_in_13 0
pair_ok_0_14_for_nic_out_0_nic_in_14 0
pair_ok_1_14_for_nic_out_0_nic_in_14 0
pair_ok_2_14_for_nic_out_0_nic_in_14 0
pair_ok_3_14_for_nic_out_0_nic_in_14 0
pair_ok_0_15_for_nic_out_0_nic_in_15 0
pair_ok_1_15_for_nic_out_0_nic_in_15 0
pair_ok_2_15_for_nic_out_0_nic_in_15 0
pair_ok_3_15_for_nic_out_0_nic_in_15 0
pp_permission_0_1 1
pp_permission_0_2 0
pp_permission_0_3 0
pp_permission_1_0 0
pp_permission_1_2 1
pp_permission_1_3 0
pp_permission_2_0 0
pp_permission_2_1 0
pp_permission_2_3 1
pp_permission_3_0 0
pp_permission_3_1 0
pp_permission_3_2 0
is_start_zero_4_for_source_nic_in_4 0
is_start_zero_5_for_source_nic_in_4 0
is_start_zero_6_for_source_nic_in_4 0
is_start_zero_7_for_source_nic_in_4 0
is_end_complete_4 0
is_end_complete_5 0
is_end_complete_6 0
is_end_complete_7 0
pair_ok_4_0_for_nic_out_4_nic_in_0 0
pair_ok_4_1_for_nic_out_4_nic_in_0 0
pair_ok_4_2_for_nic_out_4_nic_in_0 0
pair_ok_4_3_for_nic_out_4_nic_in_0 0
pair_ok_5_0_for_nic_out_4_nic_in_0 0
pair_ok_5_1_for_nic_out_4_nic_in_0 0
pair_ok_5_2_for_nic_out_4_nic_in_0 0
pair_ok_5_3_for_nic_out_4_nic_in_0 0
pair_ok_6_0_for_nic_out_4_nic_in_0 0
pair_ok_6_1_for_nic_out_4_nic_in_0 0
pair_ok_6_2_for_nic_out_4_nic_in_0 0
pair_ok_6_3_for_nic_out_4_nic_in_0 0
pair_ok_7_0_for_nic_out_4_nic_in_0 0
pair_ok_7_1_for_nic_out_4_nic_in_0 0
pair_ok_7_2_for_nic_out_4_nic_in_0 0
pair_ok_7_3_for_nic_out_4_nic_in_0 0
pair_ok_4_8_for_nic_out_4_nic_in_8 0
pair_ok_5_8_for_nic_out_4_nic_in_8 0
pair_ok_6_8_for_nic_out_4_nic_in_8 0
pair_ok_7_8_for_nic_out_4_nic_in_8 0
pair_ok_4_9_for_nic_out_4_nic_in_9 0
pair_ok_5_9_for_nic_out_4_nic_in_9 0
pair_ok_6_9_for_nic_out_4_nic_in_9 0
pair_ok_7_9_for_nic_out_4_nic_in_9 0
pair_ok_4_10_for_nic_out_4_nic_in_10 1
pair_ok_5_10_for_nic_out_4_nic_in_10 1
pair_ok_6_10_for_nic_out_4_nic_in_10 1
pair_ok_7_10_for_nic_out_4_nic_in_10 1
pair_ok_4_11_for_nic_out_4_nic_in_11 0
pair_ok_5_11_for_nic_out_4_nic_in_11 0
pair_ok_6_11_for_nic_out_4_nic_in_11 0
pair_ok_7_11_for_nic_out_4_nic_in_11 0
pair_ok_4_12_for_nic_out_4_nic_in_12 1
pair_ok_5_12_for_nic_out_4_nic_in_12 1
pair_ok_6_12_for_nic_out_4_nic_in_12 1
pair_ok_7_12_for_nic_out_4_nic_in_12 1
pair_ok_4_13_for_nic_out_4_nic_in_13 0
pair_ok_5_13_for_nic_out_4_nic_in_13 1
pair_ok_6_13_for_nic_out_4_nic_in_13 0
pair_ok_7_13_for_nic_out_4_nic_in_13 0
pair_ok_4_14_for_nic_out_4_nic_in_14 0
pair_ok_5_14_for_nic_out_4_nic_in_14 0
pair_ok_6_14_for_nic_out_4_nic_in_14 0
pair_ok_7_14_for_nic_out_4_nic_in_14 0
pair_ok_4_15_for_nic_out_4_nic_in_15 0
pair_ok_5_15_for_nic_out_4_nic_in_15 0
pair_ok_6_15_for_nic_out_4_nic_in_15 0
pair_ok_7_15_for_nic_out_4_nic_in_15 0
pp_permission_4_5 0
pp_permission_4_6 0
pp_permission_4_7 0
pp_permission_5_4 0
pp_permission_5_6 0
pp_permission_5_7 0
pp_permission_6_4 0
pp_permission_6_5 0
pp_permission_6_7 0
pp_permission_7_4 0
pp_permission_7_5 0
pp_permission_7_6 0
is_start_zero_8_for_source_nic_in_8 0
is_end_complete_8 0
pair_ok_8_0_for_nic_out_8_nic_in_0 0
pair_ok_8_1_for_nic_out_8_nic_in_0 0
pair_ok_8_2_for_nic_out_8_nic_in_0 0
pair_ok_8_3_for_nic_out_8_nic_in_0 0
pair_ok_8_4_for_nic_out_8_nic_in_4 0
pair_ok_8_5_for_nic_out_8_nic_in_4 0
pair_ok_8_6_for_nic_out_8_nic_in_4 0
pair_ok_8_7_for_nic_out_8_nic_in_4 0
pair_ok_8_9_for_nic_out_8_nic_in_9 0
pair_ok_8_10_for_nic_out_8_nic_in_10 0
pair_ok_8_11_for_nic_out_8_nic_in_11 0
pair_ok_8_12_for_nic_out_8_nic_in_12 0
pair_ok_8_13_for_nic_out_8_nic_in_13 0
pair_ok_8_14_for_nic_out_8_nic_in_14 0
pair_ok_8_15_for_nic_out_8_nic_in_15 1
is_start_zero_9_for_source_nic_in_9 1
is_end_complete_9 0
pair_ok_9_0_for_nic_out_9_nic_in_0 0
pair_ok_9_1_for_nic_out_9_nic_in_0 0
pair_ok_9_2_for_nic_out_9_nic_in_0 0
pair_ok_9_3_for_nic_out_9_nic_in_0 0
pair_ok_9_4_for_nic_out_9_nic_in_4 0
pair_ok_9_5_for_nic_out_9_nic_in_4 0
pair_ok_9_6_for_nic_out_9_nic_in_4 0
pair_ok_9_7_for_nic_out_9_nic_in_4 0
pair_ok_9_8_for_nic_out_9_nic_in_8 0
pair_ok_9_10_for_nic_out_9_nic_in_10 0
pair_ok_9_11_for_nic_out_9_nic_in_11 1
pair_ok_9_12_for_nic_out_9_nic_in_12 0
pair_ok_9_13_for_nic_out_9_nic_in_13 0
pair_ok_9_14_for_nic_out_9_nic_in_14 0
pair_ok_9_15_for_nic_out_9_nic_in_15 0
is_start_zero_10_for_source_nic_in_10 0
is_end_complete_10 0
pair_ok_10_0_for_nic_out_10_nic_in_0 0
pair_ok_10_1_for_nic_out_10_nic_in_0 0
pair_ok_10_2_for_nic_out_10_nic_in_0 0
pair_ok_10_3_for_nic_out_10_nic_in_0 0
pair_ok_10_4_for_nic_out_10_nic_in_4 0
pair_ok_10_5_for_nic_out_10_nic_in_4 0
pair_ok_10_6_for_nic_out_10_nic_in_4 0
pair_ok_10_7_for_nic_out_10_nic_in_4 0
pair_ok_10_8_for_nic_out_10_nic_in_8 0
pair_ok_10_9_for_nic_out_10_nic_in_9 0
pair_ok_10_11_for_nic_out_10_nic_in_11 0
pair_ok_10_12_for_nic_out_10_nic_in_12 0
pair_ok_10_13_for_nic_out_10_nic_in_13 0
pair_ok_10_14_for_nic_out_10_nic_in_14 0
pair_ok_10_15_for_nic_out_10_nic_in_15 0
is_start_zero_11_for_source_nic_in_11 0
is_end_complete_11 0
pair_ok_11_0_for_nic_out_11_nic_in_0 0
pair_ok_11_1_for_nic_out_11_nic_in_0 0
pair_ok_11_2_for_nic_out_11_nic_in_0 0
pair_ok_11_3_for_nic_out_11_nic_in_0 0
pair_ok_11_4_for_nic_out_11_nic_in_4 0
pair_ok_11_5_for_nic_out_11_nic_in_4 0
pair_ok_11_6_for_nic_out_11_nic_in_4 0
pair_ok_11_7_for_nic_out_11_nic_in_4 0
pair_ok_11_8_for_nic_out_11_nic_in_8 1
pair_ok_11_9_for_nic_out_11_nic_in_9 0
pair_ok_11_10_for_nic_out_11_nic_in_10 0
pair_ok_11_12_for_nic_out_11_nic_in_12 0
pair_ok_11_13_for_nic_out_11_nic_in_13 0
pair_ok_11_14_for_nic_out_11_nic_in_14 0
pair_ok_11_15_for_nic_out_11_nic_in_15 0
is_start_zero_12_for_source_nic_in_12 0
is_end_complete_12 0
pair_ok_12_0_for_nic_out_12_nic_in_0 0
pair_ok_12_1_for_nic_out_12_nic_in_0 0
pair_ok_12_2_for_nic_out_12_nic_in_0 0
pair_ok_12_3_for_nic_out_12_nic_in_0 0
pair_ok_12_4_for_nic_out_12_nic_in_4 0
pair_ok_12_5_for_nic_out_12_nic_in_4 0
pair_ok_12_6_for_nic_out_12_nic_in_4 0
pair_ok_12_7_for_nic_out_12_nic_in_4 0
pair_ok_12_8_for_nic_out_12_nic_in_8 0
pair_ok_12_9_for_nic_out_12_nic_in_9 0
pair_ok_12_10_for_nic_out_12_nic_in_10 0
pair_ok_12_11_for_nic_out_12_nic_in_11 0
pair_ok_12_13_for_nic_out_12_nic_in_13 0
pair_ok_12_14_for_nic_out_12_nic_in_14 0
pair_ok_12_15_for_nic_out_12_nic_in_15 0
is_start_zero_13_for_source_nic_in_13 0
is_end_complete_13 0
pair_ok_13_0_for_nic_out_13_nic_in_0 0
pair_ok_13_1_for_nic_out_13_nic_in_0 0
pair_ok_13_2_for_nic_out_13_nic_in_0 0
pair_ok_13_3_for_nic_out_13_nic_in_0 0
pair_ok_13_4_for_nic_out_13_nic_in_4 0
pair_ok_13_5_for_nic_out_13_nic_in_4 0
pair_ok_13_6_for_nic_out_13_nic_in_4 0
pair_ok_13_7_for_nic_out_13_nic_in_4 0
pair_ok_13_8_for_nic_out_13_nic_in_8 0
pair_ok_13_9_for_nic_out_13_nic_in_9 0
pair_ok_13_10_for_nic_out_13_nic_in_10 0
pair_ok_13_11_for_nic_out_13_nic_in_11 0
pair_ok_13_12_for_nic_out_13_nic_in_12 0
pair_ok_13_14_for_nic_out_13_nic_in_14 0
pair_ok_13_15_for_nic_out_13_nic_in_15 0
is_start_zero_14_for_source_nic_in_14 0
is_end_complete_14 0
pair_ok_14_0_for_nic_out_14_nic_in_0 0
pair_ok_14_1_for_nic_out_14_nic_in_0 0
pair_ok_14_2_for_nic_out_14_nic_in_0 0
pair_ok_14_3_for_nic_out_14_nic_in_0 0
pair_ok_14_4_for_nic_out_14_nic_in_4 0
pair_ok_14_5_for_nic_out_14_nic_in_4 0
pair_ok_14_6_for_nic_out_14_nic_in_4 0
pair_ok_14_7_for_nic_out_14_nic_in_4 0
pair_ok_14_8_for_nic_out_14_nic_in_8 0
pair_ok_14_9_for_nic_out_14_nic_in_9 0
pair_ok_14_10_for_nic_out_14_nic_in_10 0
pair_ok_14_11_for_nic_out_14_nic_in_11 0
pair_ok_14_12_for_nic_out_14_nic_in_12 0
pair_ok_14_13_for_nic_out_14_nic_in_13 0
pair_ok_14_15_for_nic_out_14_nic_in_15 0
is_start_zero_15_for_source_nic_in_15 0
is_end_complete_15 0
pair_ok_15_0_for_nic_out_15_nic_in_0 1
pair_ok_15_1_for_nic_out_15_nic_in_0 0
pair_ok_15_2_for_nic_out_15_nic_in_0 0
pair_ok_15_3_for_nic_out_15_nic_in_0 0
pair_ok_15_4_for_nic_out_15_nic_in_4 0
pair_ok_15_5_for_nic_out_15_nic_in_4 0
pair_ok_15_6_for_nic_out_15_nic_in_4 0
pair_ok_15_7_for_nic_out_15_nic_in_4 0
pair_ok_15_8_for_nic_out_15_nic_in_8 0
pair_ok_15_9_for_nic_out_15_nic_in_9 0
pair_ok_15_10_for_nic_out_15_nic_in_10 0
pair_ok_15_11_for_nic_out_15_nic_in_11 0
pair_ok_15_12_for_nic_out_15_nic_in_12 0
pair_ok_15_13_for_nic_out_15_nic_in_13 0
pair_ok_15_14_for_nic_out_15_nic_in_14 0
